947 1067 371 491
787 907 399 519
701 821 369 489
818 938 484 604
895 1015 510 630
679 799 374 494
756 876 377 497
892 1012 393 513
864 984 443 563
860 980 416 536
638 758 412 532
823 943 394 514
832 952 413 533
732 852 432 552
843 963 404 524
832 952 371 491
733 853 403 523
850 970 411 531
809 929 405 525
776 896 422 542
801 921 360 480
713 833 377 497
884 1004 392 512
741 861 369 489
775 895 368 488
797 917 360 462
848 968 372 492
687 807 413 533
908 1028 441 561
865 985 374 494
